min: c;

c = 3.45627812546856 * u1_t7_h4 + 4.02803853654439 * u1_t7_h5 + 3.53047024505285 * u1_t5_h6 + 3.53047024505285 * u1_t7_h6 + 4.29234009190491 * u1_t5_h7 + 4.29234009190491 * u1_t7_h7 + 4.29234009190491 * u1_t9_h7 + 5.01899399964376 * u1_t5_h8 + 5.01899399964376 * u1_t7_h8 + 5.01899399964376 * u1_t9_h8 + 5.01899399964376 * u1_t10_h8 + 4.7831896810001 * u1_t5_h9 + 4.7831896810001 * u1_t7_h9 + 4.7831896810001 * u1_t9_h9 + 4.7831896810001 * u1_t10_h9 + 5.39649373091393 * u1_t5_h10 + 5.39649373091393 * u1_t7_h10 + 5.39649373091393 * u1_t9_h10 + 5.39649373091393 * u1_t10_h10 + 3.62164525353888 * u1_t5_h11 + 3.62164525353888 * u1_t9_h11 + 3.62164525353888 * u1_t10_h11 + 6.52511405066837 * u1_t4_h12 + 6.52511405066837 * u1_t5_h12 + 6.52511405066837 * u1_t8_h12 + 6.52511405066837 * u1_t9_h12 + 6.52511405066837 * u1_t10_h12 + 4.34263631482957 * u1_t4_h13 + 4.34263631482957 * u1_t8_h13 + 4.34263631482957 * u1_t9_h13 + 4.34263631482957 * u1_t10_h13 + 5.85722269007359 * u1_t4_h14 + 5.85722269007359 * u1_t8_h14 + 5.85722269007359 * u1_t9_h14 + 5.85722269007359 * u1_t10_h14 + 6.38160238785678 * u1_t4_h15 + 6.38160238785678 * u1_t8_h15 + 6.11551929701169 * u1_t4_h16 + 6.11551929701169 * u1_t8_h16 + 6.29475554382194 * u1_t4_h17 + 6.29475554382194 * u1_t8_h17 + 6.5131445728803 * u1_t2_h18 + 6.5131445728803 * u1_t4_h18 + 6.5131445728803 * u1_t6_h18 + 6.5131445728803 * u1_t8_h18 + 5.25018950601471 * u1_t2_h19 + 5.25018950601471 * u1_t3_h19 + 5.25018950601471 * u1_t4_h19 + 5.25018950601471 * u1_t6_h19 + 5.913804588632 * u1_t1_h20 + 5.913804588632 * u1_t2_h20 + 5.913804588632 * u1_t3_h20 + 5.913804588632 * u1_t4_h20 + 5.913804588632 * u1_t6_h20 + 5.12382685690879 * u1_t1_h21 + 5.12382685690879 * u1_t2_h21 + 5.12382685690879 * u1_t3_h21 + 5.62943812228955 * u1_t1_h22 + 5.62943812228955 * u1_t2_h22 + 5.75354475562452 * u1_t1_h23 + 5.75354475562452 * u1_t2_h23;
0 <= u1_t1_h20 <= 1;
0 <= u1_t1_h21 <= 1;
0 <= u1_t1_h22 <= 1;
0 <= u1_t1_h23 <= 1;
u1_t1_h20 + u1_t1_h21 + u1_t1_h22 + u1_t1_h23 = 1;
0 <= u1_t2_h18 <= 1;
0 <= u1_t2_h19 <= 1;
0 <= u1_t2_h20 <= 1;
0 <= u1_t2_h21 <= 1;
0 <= u1_t2_h22 <= 1;
0 <= u1_t2_h23 <= 1;
u1_t2_h18 + u1_t2_h19 + u1_t2_h20 + u1_t2_h21 + u1_t2_h22 + u1_t2_h23 = 2;
0 <= u1_t3_h19 <= 1;
0 <= u1_t3_h20 <= 1;
0 <= u1_t3_h21 <= 1;
u1_t3_h19 + u1_t3_h20 + u1_t3_h21 = 1;
0 <= u1_t4_h12 <= 1;
0 <= u1_t4_h13 <= 1;
0 <= u1_t4_h14 <= 1;
0 <= u1_t4_h15 <= 1;
0 <= u1_t4_h16 <= 1;
0 <= u1_t4_h17 <= 1;
0 <= u1_t4_h18 <= 1;
0 <= u1_t4_h19 <= 1;
0 <= u1_t4_h20 <= 1;
u1_t4_h12 + u1_t4_h13 + u1_t4_h14 + u1_t4_h15 + u1_t4_h16 + u1_t4_h17 + u1_t4_h18 + u1_t4_h19 + u1_t4_h20 = 3;
0 <= u1_t5_h6 <= 1;
0 <= u1_t5_h7 <= 1;
0 <= u1_t5_h8 <= 1;
0 <= u1_t5_h9 <= 1;
0 <= u1_t5_h10 <= 1;
0 <= u1_t5_h11 <= 1;
0 <= u1_t5_h12 <= 1;
u1_t5_h6 + u1_t5_h7 + u1_t5_h8 + u1_t5_h9 + u1_t5_h10 + u1_t5_h11 + u1_t5_h12 = 3;
0 <= u1_t6_h18 <= 1;
0 <= u1_t6_h19 <= 1;
0 <= u1_t6_h20 <= 1;
u1_t6_h18 + u1_t6_h19 + u1_t6_h20 = 2;
0 <= u1_t7_h4 <= 1;
0 <= u1_t7_h5 <= 1;
0 <= u1_t7_h6 <= 1;
0 <= u1_t7_h7 <= 1;
0 <= u1_t7_h8 <= 1;
0 <= u1_t7_h9 <= 1;
0 <= u1_t7_h10 <= 1;
u1_t7_h4 + u1_t7_h5 + u1_t7_h6 + u1_t7_h7 + u1_t7_h8 + u1_t7_h9 + u1_t7_h10 = 2;
0 <= u1_t8_h12 <= 1;
0 <= u1_t8_h13 <= 1;
0 <= u1_t8_h14 <= 1;
0 <= u1_t8_h15 <= 1;
0 <= u1_t8_h16 <= 1;
0 <= u1_t8_h17 <= 1;
0 <= u1_t8_h18 <= 1;
u1_t8_h12 + u1_t8_h13 + u1_t8_h14 + u1_t8_h15 + u1_t8_h16 + u1_t8_h17 + u1_t8_h18 = 2;
0 <= u1_t9_h7 <= 1;
0 <= u1_t9_h8 <= 1;
0 <= u1_t9_h9 <= 1;
0 <= u1_t9_h10 <= 1;
0 <= u1_t9_h11 <= 1;
0 <= u1_t9_h12 <= 1;
0 <= u1_t9_h13 <= 1;
0 <= u1_t9_h14 <= 1;
u1_t9_h7 + u1_t9_h8 + u1_t9_h9 + u1_t9_h10 + u1_t9_h11 + u1_t9_h12 + u1_t9_h13 + u1_t9_h14 = 3;
0 <= u1_t10_h8 <= 1;
0 <= u1_t10_h9 <= 1;
0 <= u1_t10_h10 <= 1;
0 <= u1_t10_h11 <= 1;
0 <= u1_t10_h12 <= 1;
0 <= u1_t10_h13 <= 1;
0 <= u1_t10_h14 <= 1;
u1_t10_h8 + u1_t10_h9 + u1_t10_h10 + u1_t10_h11 + u1_t10_h12 + u1_t10_h13 + u1_t10_h14 = 3;
